<number of tasks>
250

<cycle time>
1000

<order strength>
0.595


<task times>
1 571
2 465
3 677
4 421
5 406
6 263
7 490
8 254
9 617
10 520
11 532
12 522
13 279
14 655
15 536
16 390
17 561
18 716
19 618
20 468
21 295
22 492
23 456
24 490
25 415
26 426
27 407
28 338
29 281
30 289
31 648
32 339
33 492
34 550
35 479
36 568
37 701
38 603
39 353
40 806
41 300
42 747
43 459
44 330
45 463
46 504
47 547
48 522
49 558
50 685
51 437
52 586
53 680
54 633
55 529
56 723
57 448
58 562
59 537
60 614
61 702
62 522
63 486
64 644
65 618
66 733
67 675
68 494
69 549
70 750
71 629
72 524
73 671
74 589
75 464
76 320
77 591
78 367
79 464
80 423
81 304
82 376
83 515
84 562
85 524
86 662
87 424
88 480
89 393
90 526
91 508
92 414
93 614
94 456
95 465
96 500
97 407
98 653
99 404
100 421
101 562
102 453
103 621
104 471
105 419
106 646
107 571
108 475
109 723
110 642
111 363
112 342
113 589
114 490
115 429
116 447
117 522
118 375
119 439
120 667
121 464
122 441
123 410
124 463
125 598
126 487
127 503
128 471
129 345
130 535
131 648
132 636
133 432
134 473
135 516
136 677
137 595
138 417
139 578
140 392
141 454
142 581
143 404
144 547
145 772
146 727
147 577
148 568
149 418
150 295
151 749
152 458
153 540
154 664
155 414
156 546
157 513
158 480
159 589
160 454
161 626
162 363
163 379
164 570
165 495
166 583
167 435
168 602
169 458
170 227
171 557
172 475
173 327
174 505
175 435
176 469
177 441
178 646
179 429
180 637
181 603
182 514
183 422
184 476
185 378
186 237
187 528
188 525
189 367
190 386
191 597
192 525
193 586
194 553
195 399
196 631
197 624
198 484
199 520
200 384
201 545
202 366
203 594
204 739
205 469
206 344
207 623
208 505
209 464
210 477
211 562
212 651
213 502
214 242
215 341
216 479
217 432
218 493
219 427
220 344
221 590
222 552
223 516
224 706
225 792
226 627
227 312
228 583
229 454
230 554
231 667
232 512
233 635
234 378
235 493
236 543
237 522
238 455
239 699
240 775
241 432
242 584
243 740
244 421
245 571
246 586
247 723
248 599
249 377
250 568

<precedence relations>
1,7
2,8
3,10
4,9
4,12
4,16
5,11
5,12
5,13
5,14
5,15
6,11
6,12
6,13
6,14
6,15
7,23
8,17
9,20
10,19
11,18
11,21
11,26
11,39
11,69
12,22
13,22
13,23
13,25
13,26
14,22
14,23
14,24
14,25
15,22
16,22
16,25
16,26
17,28
18,30
19,31
20,33
21,32
22,27
22,34
22,35
22,36
22,37
22,38
22,39
23,34
23,35
23,36
24,29
24,96
24,116
24,117
25,37
25,53
25,55
26,34
26,35
26,37
27,40
28,41
29,42
30,43
31,47
32,44
33,45
34,46
34,47
35,47
35,48
36,47
36,48
36,69
37,84
37,89
38,47
38,48
38,70
39,47
39,54
39,76
40,50
41,49
42,53
43,54
44,51
45,53
46,52
47,55
47,56
47,57
48,53
48,54
48,58
49,59
50,61
51,64
52,62
53,63
53,140
53,160
54,78
55,60
55,63
56,77
56,78
57,65
57,84
57,132
58,63
58,64
58,88
59,66
60,68
61,69
62,70
63,67
63,131
64,178
65,117
65,199
65,200
66,72
67,73
68,74
69,71
69,75
69,76
69,77
69,78
70,76
70,77
71,79
72,83
73,81
74,84
75,80
76,82
76,83
77,83
78,83
78,84
79,85
80,88
81,86
82,87
83,88
83,89
84,88
85,92
86,91
87,93
88,90
88,97
88,98
89,94
89,95
89,96
89,97
89,98
90,99
91,100
92,101
93,103
94,102
94,105
94,108
94,128
95,104
95,105
95,106
95,109
95,123
96,122
96,125
96,150
97,110
98,104
98,105
98,107
98,108
98,118
99,111
100,114
101,114
102,113
103,114
104,112
105,114
105,116
105,136
106,133
107,218
107,228
108,131
108,152
109,115
109,117
109,152
110,118
110,167
111,120
112,119
113,122
114,168
115,121
115,124
115,125
116,121
116,122
117,177
117,212
117,237
118,123
118,124
118,150
118,151
119,128
120,126
121,127
121,129
122,130
122,133
123,131
123,181
124,143
124,168
124,174
125,132
125,133
126,134
127,135
128,136
128,137
129,160
129,218
130,138
130,159
130,174
131,143
132,160
132,190
133,143
133,148
133,176
134,139
135,140
136,142
136,173
137,141
137,144
138,141
138,143
139,145
140,146
140,148
140,169
140,186
141,151
141,186
142,150
142,152
142,170
142,172
143,147
143,166
143,170
144,149
144,238
145,155
146,156
147,153
147,157
147,219
148,154
148,158
148,159
148,174
149,187
149,220
150,160
150,181
150,210
151,173
152,250
153,161
154,162
155,164
156,164
157,163
159,166
159,167
159,179
160,165
160,168
160,200
160,237
161,169
162,170
163,172
164,174
164,191
164,200
164,226
165,220
165,243
166,233
167,173
168,169
168,171
169,234
169,240
170,179
170,182
170,219
171,175
171,176
171,177
172,177
172,178
172,180
173,180
173,181
173,182
174,181
175,184
176,183
176,246
177,185
177,189
177,216
178,186
178,189
178,216
178,217
179,191
179,210
179,239
180,187
180,188
181,189
182,189
182,190
182,237
182,250
183,194
184,192
185,196
186,193
186,198
186,202
187,195
187,201
188,197
188,199
189,211
189,220
190,199
190,200
191,218
191,227
192,203
193,205
194,206
195,207
196,204
197,208
198,209
199,212
199,241
200,221
201,210
201,234
201,239
202,211
203,216
204,214
205,218
206,219
207,215
208,216
209,220
210,213
210,247
211,221
212,217
213,222
214,226
215,225
216,224
217,223
219,227
221,228
222,229
223,230
224,231
225,232
226,239
226,243
228,233
228,234
229,237
230,236
231,238
232,235
233,239
233,240
234,241
235,243
236,242
238,245
238,249
239,244
239,248
240,246
240,247
242,248
243,250
246,249

<end>
